(set-info :status unsat)
(declare-datatypes ((T 0)) ((
  (f0)
  (f1 (proj0f1 T) (proj1f1 T)))))
(assert (exists ((y14970 T) (y14971 T) (y14972 T) (y14975 T) (y14968 T) (y14967 T) (y14966 T) (y14965 T) (y14977 T) (y14963 T) (y14961 T)) (forall ((x14978 T) (x14982 T) (x14983 T) (x14980 T) (x14981 T) (x14987 T) (x14979 T) (x14985 T)) 
  (or 
    (and (= x14979 (f1 y14961 (f1 (f1 PLACEHOLDER PLACEHOLDER) (f1 PLACEHOLDER PLACEHOLDER)))) (= y14961 (f1 x14983 PLACEHOLDER)) (= x14983 (f1 y14963 (f1 PLACEHOLDER PLACEHOLDER))) (= y14963 x14982)) 
    (and (= x14981 (f1 y14965 (f1 (f1 (f1 PLACEHOLDER PLACEHOLDER) (f1 PLACEHOLDER PLACEHOLDER)) (f1 (f1 PLACEHOLDER PLACEHOLDER) (f1 PLACEHOLDER PLACEHOLDER))))) (= y14965 (f1 y14966 (f1 (f1 (f1 PLACEHOLDER PLACEHOLDER) (f1 PLACEHOLDER PLACEHOLDER)) (f1 (f1 PLACEHOLDER PLACEHOLDER) (f1 PLACEHOLDER PLACEHOLDER))))) (= y14966 (f1 y14967 (f1 PLACEHOLDER PLACEHOLDER))) (= y14967 (f1 y14968 (f1 PLACEHOLDER PLACEHOLDER))) (= y14968 (f1 x14981 PLACEHOLDER))) (= x14985 (f1 x14985 PLACEHOLDER)) 
    (and (= y14970 (f1 y14971 PLACEHOLDER)) (= y14971 (f1 y14972 (f1 PLACEHOLDER PLACEHOLDER))) (= y14972 (f1 y14970 PLACEHOLDER))) (= x14980 (f1 x14980 PLACEHOLDER)) 
    (and (= x14978 (f1 y14975 PLACEHOLDER)) (= y14975 (f1 x14978 PLACEHOLDER))) 
    (and (= x14987 (f1 y14977 (f1 PLACEHOLDER PLACEHOLDER))) (= y14977 (f1 x14987 PLACEHOLDER)))))))
(check-sat)
